c Formula 3
c SAT Benchmark Formula
c Generated for preprocessing testing
c Contains tautologies, duplicates, and subsumption cases
p cnf 40 180
3 0
-5 0
1 2 0
1 2 3 4 0
1 2 3 4 5 6 0
7 8 9 0
7 8 9 0
7 8 9 0
4 -4 10 0
11 -11 12 13 0
15 -15 16 17 18 0
-1 5 6 0
-1 5 6 7 8 0
2 -3 4 0
2 -3 4 9 10 0
5 6 7 0
5 6 7 11 0
8 9 10 0
8 9 10 12 13 14 0
11 12 13 0
14 15 16 0
14 15 16 0
17 18 19 0
17 18 19 20 0
-2 -4 6 0
-2 -4 6 8 10 0
1 -5 7 0
1 -5 7 9 11 0
3 4 5 6 0
3 4 5 6 0
7 -8 9 10 0
11 -12 13 14 0
15 16 -17 18 0
19 20 21 0
19 20 21 22 0
-1 -2 -3 0
4 5 -6 0
4 5 -6 7 8 0
-7 8 9 0
10 -11 12 0
10 -11 12 13 14 0
-13 14 15 0
16 17 -18 0
-19 20 21 0
22 23 24 0
22 23 24 25 0
-1 3 5 0
2 -4 6 0
2 -4 6 8 0
-7 9 11 0
8 -10 12 0
13 15 -17 0
14 -16 18 0
19 -21 23 0
20 22 -24 0
1 3 5 7 0
2 4 6 8 0
9 11 13 15 0
10 12 14 16 0
17 19 21 23 0
18 20 22 24 0
-1 -3 -5 0
-2 -4 -6 0
-7 -9 -11 0
-8 -10 -12 0
1 2 3 0
1 2 3 0
4 5 6 0
7 8 9 10 0
11 12 13 14 0
15 16 17 18 0
19 20 21 22 0
23 24 25 26 0
-1 2 -3 4 0
-5 6 -7 8 0
-9 10 -11 12 0
-13 14 -15 16 0
-17 18 -19 20 0
1 -2 3 -4 0
5 -6 7 -8 0
9 -10 11 -12 0
13 -14 15 -16 0
17 -18 19 -20 0
21 22 23 0
24 25 26 0
27 28 29 0
30 31 32 0
33 34 35 0
36 37 38 0
-21 -22 23 0
-24 -25 26 0
-27 -28 29 0
-30 -31 32 0
1 5 9 13 0
2 6 10 14 0
3 7 11 15 0
4 8 12 16 0
-1 -5 -9 0
-2 -6 -10 0
-3 -7 -11 0
-4 -8 -12 0
17 21 25 29 0
18 22 26 30 0
19 23 27 31 0
20 24 28 32 0
1 11 21 0
2 12 22 0
3 13 23 0
4 14 24 0
5 15 25 0
6 16 26 0
7 17 27 0
8 18 28 0
9 19 29 0
10 20 30 0
-1 -11 -21 0
-2 -12 -22 0
-3 -13 -23 0
-4 -14 -24 0
1 2 31 0
3 4 32 0
5 6 33 0
7 8 34 0
9 10 35 0
11 12 36 0
13 14 37 0
15 16 38 0
17 18 39 0
19 20 40 0
-31 1 2 0
-32 3 4 0
-33 5 6 0
-34 7 8 0
21 -22 23 24 0
25 -26 27 28 0
29 -30 31 32 0
33 -34 35 36 0
1 -2 3 0
4 -5 6 0
7 -8 9 0
10 -11 12 0
13 -14 15 0
16 -17 18 0
19 -20 21 0
22 -23 24 0
25 -26 27 0
28 -29 30 0
31 -32 33 0
34 -35 36 0
37 -38 39 0
-1 2 -3 0
-4 5 -6 0
-7 8 -9 0
-10 11 -12 0
1 5 10 15 20 0
2 6 11 16 21 0
3 7 12 17 22 0
4 8 13 18 23 0
-1 -5 -10 -15 0
-2 -6 -11 -16 0
-3 -7 -12 -17 0
5 10 15 20 25 30 0
6 11 16 21 26 31 0
7 12 17 22 27 32 0
8 13 18 23 28 33 0
9 14 19 24 29 34 0
1 6 11 16 0
2 7 12 17 0
3 8 13 18 0
4 9 14 19 0
5 10 15 20 0